6  4
2  3  1  10  3  12  2  11  3  4  18  2  16  3  17
2  3  2  10  4  8  3  12  3  4  18  1  20  2  16
2  3  1  10  3  12  2  8  3  3  20  2  18  4  22
3  3  2  10  4  11  1  13  3  3  15  1  17  4  13  3  4  12  2  9  3  11
3  3  1  10  4  12  2  8  3  2  15  1  14  3  14  3  4  12  3  11  1  15
3  3  1  10  3  11  2  12  3  2  15  4  13  3  14  3  3  12  2  13  4  11